tsp_component/tsp_opt_sols/d493.opt.tsp.sol
NAME : d493
COMMENT :  optimal TSP tour (length = 35231)
TYPE : TOUR CEIL_2D
DIMENSION : 493
TOUR_SECTION
1
3
52
51
48
49
50
44
43
46
47
45
42
41
22
23
24
33
34
35
36
38
37
40
39
32
31
30
29
28
27
26
399
392
385
423
422
429
25
457
462
464
466
463
465
467
468
469
470
471
472
473
481
480
478
477
474
475
476
479
482
488
487
485
484
493
492
491
362
335
372
348
395
428
490
427
421
401
384
373
361
347
332
320
316
307
288
275
270
274
302
315
328
339
354
366
379
394
426
430
489
486
456
442
455
454
453
441
440
439
452
451
483
450
438
437
436
449
448
447
435
434
446
445
459
460
444
433
412
413
414
415
416
417
418
419
420
410
388
376
363
351
336
324
331
319
308
303
311
300
287
286
296
285
284
283
282
281
280
290
309
291
292
293
294
295
312
313
322
329
359
375
356
340
344
355
367
380
387
402
403
404
405
406
407
408
386
393
400
383
374
378
365
353
360
346
333
338
327
314
321
306
289
279
256
242
243
244
257
258
259
260
261
262
263
264
251
250
249
248
247
246
245
238
233
227
228
229
234
223
231
241
267
271
273
278
299
304
318
310
323
337
330
343
357
350
349
358
364
377
368
381
396
389
409
424
425
432
431
443
461
458
411
397
390
371
370
369
398
391
382
334
342
326
345
352
341
325
317
297
276
272
236
230
222
215
218
211
206
208
212
217
213
219
221
220
232
237
252
253
265
254
239
226
214
178
196
183
177
165
158
157
151
143
109
103
104
111
118
124
141
153
164
168
187
191
192
188
193
195
199
205
200
204
207
203
202
184
169
172
182
197
198
179
185
189
186
194
180
174
176
201
209
216
210
225
240
255
268
298
277
305
301
269
266
235
224
21
190
181
175
171
173
170
163
161
155
149
139
128
122
121
126
125
129
132
145
152
154
159
160
162
167
166
156
146
147
148
150
144
142
140
138
130
134
133
131
135
137
136
127
123
120
115
114
110
102
105
108
112
113
119
117
107
106
99
97
98
101
100
95
93
92
94
91
89
88
90
75
76
77
79
96
82
83
80
81
78
74
73
71
72
70
68
69
67
66
20
61
62
63
84
85
86
116
87
64
60
59
58
65
55
54
56
57
53
13
14
15
16
17
18
19
12
8
7
11
10
9
6
5
4
2
-1
EOF
